
Gurobi 9.5.0 (win64) logging started Mon Jun  6 17:31:44 2022

Set parameter LogFile to value "C:\Users\kmajd1\Documents\NNRepLayer_v2\demos\examples\tc7_walking_example\repair_net/logs/opt_log_6_6_2022_17_31_24.log"
Gurobi Optimizer version 9.5.0 build v9.5.0rc5 (win64)
Thread count: 8 physical cores, 16 logical processors, using up to 16 threads
Optimize a model with 366 rows, 134 columns and 990 nonzeros
Model fingerprint: 0x39ac9366
Model has 101 quadratic objective terms
Coefficient statistics:
  Matrix range     [9e-03, 2e+01]
  Objective range  [3e-04, 4e-01]
  QObjective range [2e-02, 2e+00]
  Bounds range     [1e+01, 6e+01]
  RHS range        [2e-03, 3e+01]
Presolve removed 224 rows and 13 columns
Presolve time: 0.01s
Presolved: 142 rows, 121 columns, 753 nonzeros
Presolved model has 101 quadratic objective terms
Ordering time: 0.00s

Barrier statistics:
 Dense cols : 10
 AA' NZ     : 1.097e+03
 Factor NZ  : 1.704e+03
 Factor Ops : 2.953e+04 (less than 1 second per iteration)
 Threads    : 1

                  Objective                Residual
Iter       Primal          Dual         Primal    Dual     Compl     Time
   0   1.61457052e+07 -1.73619516e+07  3.82e+03 4.18e+02  8.94e+05     0s
   1   5.09648201e+06 -6.30297861e+06  2.04e+03 2.23e+02  4.85e+05     0s
   2   3.50699984e+04 -1.80264304e+06  1.88e+02 2.06e+01  6.41e+04     0s
   3   1.17988552e+02 -1.40911330e+06  1.58e+01 1.73e+00  9.03e+03     0s
   4   1.60005176e+02 -7.91184845e+05  3.55e+00 3.88e-01  3.33e+03     0s
   5   2.39876483e+02 -1.14178235e+05  8.78e-02 9.60e-03  4.03e+02     0s
   6   2.32749002e+02 -1.24845767e+03  8.88e-04 9.71e-05  5.18e+00     0s
   7   6.30691369e+01 -1.72671072e+02  3.89e-05 4.25e-06  8.24e-01     0s
   8   1.93189915e+01 -2.92562769e+01  3.89e-11 4.25e-12  1.70e-01     0s
   9   1.52920220e+01 -7.63075547e+00  1.74e-11 1.91e-12  8.01e-02     0s
  10   1.52945479e+01  7.41524064e+00  3.41e-13 3.05e-14  2.76e-02     0s
  11   1.41853182e+01  1.39079201e+01  4.73e-13 3.71e-14  9.70e-04     0s
  12   1.41562905e+01  1.41339366e+01  3.34e-13 3.48e-12  7.82e-05     0s
  13   1.41533973e+01  1.41494565e+01  1.34e-12 1.92e-11  1.38e-05     0s
  14   1.41528472e+01  1.41527355e+01  1.46e-12 3.86e-11  3.90e-07     0s
  15   1.41528334e+01  1.41528323e+01  1.43e-11 1.96e-10  3.73e-09     0s
  16   1.41528325e+01  1.41528326e+01  1.72e-10 5.90e-09  3.13e-11     0s

Barrier solved model in 16 iterations and 0.03 seconds (0.00 work units)
Optimal objective 1.41528325e+01


Gurobi 9.5.0 (win64) logging started Mon Jun  6 17:31:59 2022

Set parameter LogFile to value "C:\Users\kmajd1\Documents\NNRepLayer_v2\demos\examples\tc7_walking_example\repair_net/logs/opt_log_6_6_2022_17_31_24.log"
Gurobi Optimizer version 9.5.0 build v9.5.0rc5 (win64)
Thread count: 8 physical cores, 16 logical processors, using up to 16 threads
Optimize a model with 28012 rows, 17157 columns and 78540 nonzeros
Model fingerprint: 0x2dd2fdaf
Model has 101 quadratic objective terms
Variable types: 7557 continuous, 9600 integer (9600 binary)
Coefficient statistics:
  Matrix range     [1e-02, 6e+01]
  Objective range  [3e-04, 4e-01]
  QObjective range [2e-02, 2e+00]
  Bounds range     [1e+00, 6e+01]
  RHS range        [6e-04, 6e+01]
Presolve removed 16456 rows and 6528 columns
Presolve time: 0.11s
Presolved: 11556 rows, 10629 columns, 52228 nonzeros
Presolved model has 101 quadratic objective terms
Variable types: 7429 continuous, 3200 integer (3200 binary)
Root relaxation presolve removed 3200 rows and 3200 columns
Root relaxation presolved: 8356 rows, 7429 columns, 45828 nonzeros
Root relaxation presolved model has 101 quadratic objective terms


Root relaxation: objective 6.811985e+00, 10544 iterations, 0.99 seconds (1.67 work units)

    Nodes    |    Current Node    |     Objective Bounds      |     Work
 Expl Unexpl |  Obj  Depth IntInf | Incumbent    BestBd   Gap | It/Node Time

     0     0    6.81199    0  728          -    6.81199      -     -    2s
H    0     0                      69.2449971    6.81199  90.2%     -    7s
H    0     0                      64.3631234    6.81199  89.4%     -    7s
H    0     0                      64.1200544    6.81199  89.4%     -    7s
H    0     0                      63.9635036    6.81199  89.4%     -    7s
H    0     0                      63.2235396    6.81199  89.2%     -    7s
H    0     0                      62.2218864    6.81199  89.1%     -    7s
H    0     0                      53.7835257    6.81199  87.3%     -    7s
     0     0    6.81199    0  681   53.78353    6.81199  87.3%     -    9s
H    0     0                       8.9502541    6.81199  23.9%     -    9s
     0     0    6.81199    0  681    8.95025    6.81199  23.9%     -   11s
     0     0    6.81199    0  706    8.95025    6.81199  23.9%     -   12s
H    0     0                       8.9431524    6.81199  23.8%     -   12s
     0     0    6.81199    0  693    8.94315    6.81199  23.8%     -   12s
     0     0    6.81199    0  754    8.94315    6.81199  23.8%     -   13s
     0     2    6.81199    0  754    8.94315    6.81199  23.8%     -   16s
    31    40    7.04006    6 1085    8.94315    6.81199  23.8%   601   21s
H   35    40                       8.9418467    6.81199  23.8%   536   21s
H   64    80                       8.9257055    6.81199  23.7%   307   23s
H   66    80                       8.9213903    6.81199  23.6%   299   23s
H   68    80                       8.9178530    6.81199  23.6%   292   23s
H   70    80                       8.9175474    6.81199  23.6%   284   23s
H   74    80                       8.8868988    6.81199  23.3%   269   23s
H   78    80                       8.8646316    6.81199  23.2%   257   23s
   919   975    7.10085  118  936    8.86463    6.81199  23.2%  37.9   25s
  1114  1123    7.10085  143  904    8.86463    6.81199  23.2%  35.6   30s
H 1115  1123                       8.8393665    6.81199  22.9%  35.5   30s
H 1117  1123                       8.8393404    6.81199  22.9%  35.5   30s
H 1119  1123                       8.8327768    6.81199  22.9%  35.4   30s
H 2023  2032                       8.7732021    6.81199  22.4%  30.5   45s
  2031  2103    7.10085  248  766    8.77320    6.81199  22.4%  30.7   51s
  3622  3841    7.10085  480  599    8.77320    6.81199  22.4%  35.9   55s
  5680  5942    7.10085  769  439    8.77320    6.81199  22.4%  45.0   60s
  7448  7449    7.03580  487  754    8.77320    6.81199  22.4%  56.0   69s
  7450  7450    7.10085  106  735    8.77320    6.81199  22.4%  55.9   78s
  7451  7451    7.12601  586  717    8.77320    6.81199  22.4%  55.9   80s
  7455  7454    7.04984  435  755    8.77320    6.81199  22.4%  55.9   86s
  7456  7454    7.12601  394  733    8.77320    6.81199  22.4%  55.9   90s
  7461  7458    7.16852 1070  745    8.77320    6.81199  22.4%  55.9   95s
  7466  7466    7.00482   12 1065    8.77320    6.81199  22.4%  58.8  100s
  8496  8157    7.06678   61 1074    8.77320    6.81199  22.4%  59.5  111s
H 8497  7782                       8.7467282    6.81199  22.1%  59.5  111s
  8995  8115    7.06678   81 1039    8.74673    6.81199  22.1%  57.9  126s
  9157  8223    7.06678   89 1021    8.74673    6.81199  22.1%  57.2  132s
H 9158  7869                       8.7380865    6.81199  22.0%  57.2  132s
H 9160  7531                       8.7335523    6.81199  22.0%  57.2  132s
H 9161  7211                       8.7032590    6.81199  21.7%  57.2  132s
 10121  7989    7.06678  137  947    8.70326    6.81199  21.7%  55.0  135s
 11464  8946    7.06678  215  818    8.70326    6.81199  21.7%  53.8  140s
 13553 10377    7.06678  330  678    8.70326    6.81199  21.7%  52.9  146s
H13754 10006                       8.5292184    6.81199  20.1%  53.0  146s
 14815 11617    7.06678  400  643    8.52922    6.81199  20.1%  55.9  152s
 16593 12357    7.06678  527  523    8.52922    6.81199  20.1%  61.7  155s
 18486 13452    7.06678  640  425    8.52922    6.81199  20.1%  59.5  160s
 20140 14408    8.02814  740  532    8.52922    6.81199  20.1%  60.7  165s
 20805 14979    8.02814  812  487    8.52922    6.81199  20.1%  68.5  196s
H21126 14583                       8.5000109    6.81199  19.9%  69.5  196s
 21865 15550    8.02814  937  409    8.50001    6.81199  19.9%  71.8  202s
 22892 16099     cutoff  977         8.50001    6.81199  19.9%  76.2  206s
 23960 16421    8.02814  994  411    8.50001    6.81199  19.9%  77.7  212s
 24101 16442    8.06330 1011  451    8.50001    6.81199  19.9%  85.6  220s
 24125 16906    8.06330 1012  448    8.50001    6.81199  19.9%  87.0  226s
 24593 17243     cutoff 1030         8.50001    6.81199  19.9%  87.4  232s
 25045 17472    8.06330 1051  429    8.50001    6.81199  19.9%   102  240s
 25288 17817    8.06330 1058  425    8.50001    6.81199  19.9%   105  248s
H25405 17798                       8.4759174    6.81199  19.6%   105  248s
 25671 18054    8.06330 1068  435    8.47592    6.81199  19.6%   107  251s
 25940 18347     cutoff 1072         8.47592    6.81199  19.6%   114  256s
H26237 18216                       8.3976108    6.81199  18.9%   116  334s
H26240 18201                       8.3643639    6.81199  18.6%   117  334s
H26241 18132                       8.3269010    6.81199  18.2%   117  334s
 26245 18218    8.06330 1073  434    8.32690    6.81199  18.2%   118  343s
H26296 18194                       8.3125108    6.81199  18.1%   118  343s
H26336 18194                       8.3090038    6.81199  18.0%   125  343s
 26341 18992    8.06330 1086  433    8.30900    6.81199  18.0%   127  348s
 27144 19678    8.06330 1093  433    8.30900    6.81199  18.0%   128  353s
H27830 19665                       8.2676001    6.81199  17.6%   129  383s
H27836 19636                       8.2531047    6.81199  17.5%   129  383s
 27838 20004    8.06330 1143  399    8.25310    6.81199  17.5%   129  392s
 28210 20592    8.21009 1195  374    8.25310    6.81199  17.5%   130  396s
 29141 21110     cutoff 1370         8.25310    6.81199  17.5%   138  403s
 29362 22392     cutoff 1368         8.25310    6.81199  17.5%   153  417s
 30656 22621    8.10931  224 1006    8.25310    6.81199  17.5%   160  424s
H30885 22788                       8.2353144    6.81199  17.3%   162  443s
H30941 22745                       8.2231470    6.81199  17.2%   163  443s

Cutting planes:
  Gomory: 4
  Implied bound: 20
  MIR: 841
  Flow cover: 946
  Relax-and-lift: 4

Explored 31093 nodes (5167206 simplex iterations) in 443.64 seconds (801.96 work units)
Thread count was 16 (of 16 available processors)

Solution count 10: 8.22315 8.23531 8.2531 ... 8.47592

Solve interrupted
Best objective 8.223147034550e+00, best bound 6.811988738388e+00, gap 17.1608%

Gurobi 9.5.0 (win64) logging started Mon Jun  6 17:40:04 2022

Set parameter LogFile to value "C:\Users\kmajd1\Documents\NNRepLayer_v2\demos\examples\tc7_walking_example\repair_net/logs/opt_log_6_6_2022_17_31_24.log"
Gurobi Optimizer version 9.5.0 build v9.5.0rc5 (win64)
Thread count: 8 physical cores, 16 logical processors, using up to 16 threads
Optimize a model with 53612 rows, 33157 columns and 244428 nonzeros
Model fingerprint: 0x1d40e705
Model has 101 quadratic objective terms
Variable types: 13957 continuous, 19200 integer (19200 binary)
Coefficient statistics:
  Matrix range     [2e-04, 6e+01]
  Objective range  [3e-04, 4e-01]
  QObjective range [2e-02, 2e+00]
  Bounds range     [1e+00, 6e+01]
  RHS range        [6e-04, 6e+01]
Presolve removed 32200 rows and 12800 columns
Presolve time: 0.57s
Presolved: 21412 rows, 20357 columns, 193028 nonzeros
Presolved model has 101 quadratic objective terms
Variable types: 13957 continuous, 6400 integer (6400 binary)
Root relaxation presolve removed 6400 rows and 6400 columns
Root relaxation presolved: 15012 rows, 13957 columns, 180228 nonzeros
Root relaxation presolved model has 101 quadratic objective terms


Root simplex log...

Iteration    Objective       Primal Inf.    Dual Inf.      Time
    5647    6.8119854e+00   1.261293e+03   0.000000e+00      5s
   20692    6.8119854e+00   0.000000e+00   0.000000e+00      8s
   20692    6.8119854e+00   0.000000e+00   0.000000e+00      8s

Root relaxation: objective 6.811985e+00, 20692 iterations, 3.99 seconds (9.69 work units)

    Nodes    |    Current Node    |     Objective Bounds      |     Work
 Expl Unexpl |  Obj  Depth IntInf | Incumbent    BestBd   Gap | It/Node Time

     0     0    6.81199    0 2170          -    6.81199      -     -    8s
     0     0    6.81199    0 2734          -    6.81199      -     -   56s
     0     0    6.81199    0 2832          -    6.81199      -     -  117s
     0     0    6.81199    0 2911          -    6.81199      -     -  129s
     0     0    6.81199    0 2929          -    6.81199      -     -  155s
     0     0    6.81199    0 2995          -    6.81199      -     -  173s
     0     0    6.81199    0 3061          -    6.81199      -     -  190s
     0     0    6.81199    0 3084          -    6.81199      -     -  208s
     0     2    6.81199    0 3084          -    6.81199      -     -  280s
     3     8    6.81199    2 3087          -    6.81199      - 23437  313s
     7    16    6.82565    3 3162          -    6.81199      - 37202  359s
    15    24    6.82565    4 3194          -    6.81199      - 35645  487s
    23    30    6.84220    4 3249          -    6.81199      - 36987  568s

Cutting planes:
  Cover: 1
  Implied bound: 3
  MIR: 1727
  Flow cover: 1402
  Relax-and-lift: 1

Explored 29 nodes (1425148 simplex iterations) in 568.39 seconds (1245.68 work units)
Thread count was 16 (of 16 available processors)

Solution count 0

Solve interrupted
Best objective -, best bound 6.811988973640e+00, gap -
